33
100
70	2
68	3
66	1
65	1
64	1
62	1
61	1
59	2
58	1
57	2
55	1
54	1
53	1
52	2
48	3
47	1
45	1
44	1
43	4
42	2
40	2
39	1
36	3
35	1
33	1
31	1
30	1
29	1
27	1
23	1
21	1
14	1
11	3
